NAME : portcgen-21-3
COMMENT : portcgen N=21, seed=3
TYPE : TSP
DIMENSION : 21
EDGE_WEIGHT_TYPE : EUC_2D
NODE_COORD_SECTION
1 281374 129587
2 -96982 -231903
3 -144141 328340
4 -115752 357792
5 -227630 20870
6 112471 -268964
7 -28348 -294563
8 199374 227582
9 -186029 -296800
10 78591 -200565
11 -187316 -31553
12 175444 323819
13 72423 -26793
14 -308428 -342060
15 -58899 127926
16 119066 76692
17 555976 382182
18 24098 66208
19 132079 116277
20 -385695 -47640
21 -190738 266135
